\ SCIP STATISTICS
\   Problem name     : gr4x6
\   Variables        : 48 (24 binary, 0 integer, 0 implicit integer, 24 continuous)
\   Constraints      : 34
Minimize
 Obj: +15 Y22 +11 Y0 +16 Y1 +18 Y2 +17 Y3 +10 Y4 +20 Y5 +14 Y6 +17 Y7 +17 Y8 +13 Y9 +15 Y10 +13 Y11 +12 Y12
      +13 Y13 +20 Y14 +17 Y15 +13 Y16 +15 Y17 +16 Y18 +19 Y19 +15 Y20 +11 Y21 +12 Y23 +0.69 X0 +0.64 X1
      +0.71 X2 +0.79 X3 +1.7 X4 +2.83 X5 +1.01 X6 +0.75 X7 +0.88 X8 +0.59 X9 +1.5 X10 +2.63 X11 +1.05 X12
      +1.06 X13 +1.08 X14 +0.64 X15 +1.22 X16 +2.37 X17 +1.94 X18 +1.5 X19 +1.56 X20 +1.22 X21 +1.98 X22
      +1.98 X23
Subject to
 A0: +1 X0 +1 X1 +1 X2 +1 X3 +1 X4 +1 X5 = +45
 A1: +1 X6 +1 X7 +1 X8 +1 X9 +1 X10 +1 X11 = +35
 A2: +1 X12 +1 X13 +1 X14 +1 X15 +1 X16 +1 X17 = +20
 A3: +1 X18 +1 X19 +1 X20 +1 X21 +1 X22 +1 X23 = +15
 B0: +1 X0 +1 X6 +1 X12 +1 X18 = +35
 B1: +1 X1 +1 X7 +1 X13 +1 X19 = +30
 B2: +1 X2 +1 X8 +1 X14 +1 X20 = +25
 B3: +1 X3 +1 X9 +1 X15 +1 X21 = +15
 B4: +1 X4 +1 X10 +1 X16 +1 X22 = +5
 B5: +1 X5 +1 X11 +1 X17 +1 X23 = +5
 G0: +1 X0 -35 Y0 <= +0
 G1: +1 X1 -30 Y1 <= +0
 G2: +1 X2 -25 Y2 <= +0
 G3: +1 X3 -15 Y3 <= +0
 G4: +1 X4 -5 Y4 <= +0
 G5: +1 X5 -5 Y5 <= +0
 G6: +1 X6 -35 Y6 <= +0
 G7: +1 X7 -30 Y7 <= +0
 G8: +1 X8 -25 Y8 <= +0
 G9: +1 X9 -15 Y9 <= +0
 G10: +1 X10 -5 Y10 <= +0
 G11: +1 X11 -5 Y11 <= +0
 G12: +1 X12 -20 Y12 <= +0
 G13: +1 X13 -20 Y13 <= +0
 G14: +1 X14 -20 Y14 <= +0
 G15: +1 X15 -15 Y15 <= +0
 G16: +1 X16 -5 Y16 <= +0
 G17: +1 X17 -5 Y17 <= +0
 G18: +1 X18 -15 Y18 <= +0
 G19: +1 X19 -15 Y19 <= +0
 G20: +1 X20 -15 Y20 <= +0
 G21: +1 X21 -15 Y21 <= +0
 G22: +1 X22 -5 Y22 <= +0
 G23: +1 X23 -5 Y23 <= +0
Bounds
 0 <= Y22 <= 1
 0 <= Y0 <= 1
 0 <= Y1 <= 1
 0 <= Y2 <= 1
 0 <= Y3 <= 1
 0 <= Y4 <= 1
 0 <= Y5 <= 1
 0 <= Y6 <= 1
 0 <= Y7 <= 1
 0 <= Y8 <= 1
 0 <= Y9 <= 1
 0 <= Y10 <= 1
 0 <= Y11 <= 1
 0 <= Y12 <= 1
 0 <= Y13 <= 1
 0 <= Y14 <= 1
 0 <= Y15 <= 1
 0 <= Y16 <= 1
 0 <= Y17 <= 1
 0 <= Y18 <= 1
 0 <= Y19 <= 1
 0 <= Y20 <= 1
 0 <= Y21 <= 1
 0 <= Y23 <= 1
Binaries
 Y22 Y0 Y1 Y2 Y3 Y4 Y5 Y6 Y7 Y8 Y9 Y10 Y11 Y12 Y13 Y14 Y15 Y16 Y17 Y18 Y19 Y20 Y21 Y23
End
